tsp_instances/TSP50/instance65.tsp
NODE_COORD_SECTION
0 18 28
1 100 100
2 162 90
3 175 161
4 146 100
5 65 131
6 170 172
7 153 112
8 70 67
9 95 24
10 83 166
11 22 45
12 136 91
13 32 54
14 95 33
15 125 196
16 6 57
17 148 124
18 10 55
19 152 145
20 141 196
21 20 172
22 49 38
23 9 68
24 21 55
25 79 188
26 57 76
27 92 166
28 54 161
29 92 83
30 183 137
31 131 25
32 42 74
33 178 9
34 167 78
35 82 167
36 153 121
37 57 159
38 118 100
39 173 143
40 194 1
41 150 190
42 20 45
43 137 157
44 166 86
45 29 87
46 131 94
47 73 35
48 96 192
49 136 130
