tsp_instances/TSP50/instance65.opt.tour
TOUR_SECTION
1
23
48
15
10
32
34
41
35
45
3
13
47
39
5
8
37
18
50
44
20
40
31
4
7
42
21
16
49
26
28
11
36
38
29
22
6
2
30
9
27
33
46
24
17
19
25
14
12
43
-1